n_res = 4;
rc = [ 20, 22, 24, 28 ];
n_tasks = 15;
d = [ 6, 2, 9, 8, 25, 100, 50, 25, 75, 50, 150, 5, 3, 1, 7 ];
rr = [| 5, 1, 3, 2, 10, 9, 1, 1, 10, 1, 9, 7, 2, 8, 2
      | 3, 2, 4, 8, 5, 1, 2, 4, 2, 2, 1, 10, 3, 5, 1
      | 4, 10, 7, 3, 1, 1, 10, 6, 7, 2, 2, 4, 3, 2, 9
      | 7, 5, 7, 10, 7, 7, 7, 2, 5, 8, 9, 4, 4, 8, 4 |];
suc = [ {  },
       { 4, 5, 6 },
       { 13 },
       { 10 },
       { 15 },
       { 7, 8, 11 },
       {  },
       { 9 },
       { 14 },
       { 12 },
       {  },
       { 14 },
       {  },
       {  },
       {  } ];
